(set-logic QF_LRA)
(declare-fun X0 () Real )
(declare-fun Y0 () Real )
(declare-fun X1 () Real )
(declare-fun Y1 () Real )
(declare-fun X2 () Real )
(declare-fun Y2 () Real )
(declare-fun X3 () Real )
(declare-fun Y3 () Real )
(declare-fun X4 () Real )
(declare-fun Y4 () Real )
(declare-fun X5 () Real )
(declare-fun Y5 () Real )
(declare-fun X6 () Real )
(declare-fun Y6 () Real )
(declare-fun X7 () Real )
(declare-fun Y7 () Real )
(declare-fun X8 () Real )
(declare-fun Y8 () Real )
(declare-fun X9 () Real )
(declare-fun Y9 () Real )
(declare-fun X10 () Real )
(declare-fun Y10 () Real )
(declare-fun X11 () Real )
(declare-fun Y11 () Real )
(declare-fun X12 () Real )
(declare-fun Y12 () Real )
(declare-fun X13 () Real )
(declare-fun Y13 () Real )
(declare-fun X14 () Real )
(declare-fun Y14 () Real )
(declare-fun X15 () Real )
(declare-fun Y15 () Real )
(declare-fun X16 () Real )
(declare-fun Y16 () Real )
(declare-fun X17 () Real )
(declare-fun Y17 () Real )
(declare-fun Z () Real )
(declare-fun k () Real )
(assert (let
(( $goal (>= Z k) ))
(let
((
$phi ( and 
( or ( <= ( + X0 91 ) X1 )  ( <= ( + X1 73 ) X0 )  ( <= ( + Y0 25 ) Y1 )  ( <= ( + Y1 16 ) Y0 )  )
( or ( <= ( + X0 91 ) X2 )  ( <= ( + X2 31 ) X0 )  ( <= ( + Y0 25 ) Y2 )  ( <= ( + Y2 33 ) Y0 )  )
( or ( <= ( + X0 91 ) X3 )  ( <= ( + X3 90 ) X0 )  ( <= ( + Y0 25 ) Y3 )  ( <= ( + Y3 58 ) Y0 )  )
( or ( <= ( + X0 91 ) X4 )  ( <= ( + X4 53 ) X0 )  ( <= ( + Y0 25 ) Y4 )  ( <= ( + Y4 97 ) Y0 )  )
( or ( <= ( + X0 91 ) X5 )  ( <= ( + X5 37 ) X0 )  ( <= ( + Y0 25 ) Y5 )  ( <= ( + Y5 24 ) Y0 )  )
( or ( <= ( + X0 91 ) X6 )  ( <= ( + X6 54 ) X0 )  ( <= ( + Y0 25 ) Y6 )  ( <= ( + Y6 88 ) Y0 )  )
( or ( <= ( + X0 91 ) X7 )  ( <= ( + X7 53 ) X0 )  ( <= ( + Y0 25 ) Y7 )  ( <= ( + Y7 99 ) Y0 )  )
( or ( <= ( + X0 91 ) X8 )  ( <= ( + X8 64 ) X0 )  ( <= ( + Y0 25 ) Y8 )  ( <= ( + Y8 59 ) Y0 )  )
( or ( <= ( + X0 91 ) X9 )  ( <= ( + X9 25 ) X0 )  ( <= ( + Y0 25 ) Y9 )  ( <= ( + Y9 40 ) Y0 )  )
( or ( <= ( + X0 91 ) X10 )  ( <= ( + X10 21 ) X0 )  ( <= ( + Y0 25 ) Y10 )  ( <= ( + Y10 41 ) Y0 )  )
( or ( <= ( + X0 91 ) X11 )  ( <= ( + X11 54 ) X0 )  ( <= ( + Y0 25 ) Y11 )  ( <= ( + Y11 69 ) Y0 )  )
( or ( <= ( + X0 91 ) X12 )  ( <= ( + X12 75 ) X0 )  ( <= ( + Y0 25 ) Y12 )  ( <= ( + Y12 86 ) Y0 )  )
( or ( <= ( + X0 91 ) X13 )  ( <= ( + X13 20 ) X0 )  ( <= ( + Y0 25 ) Y13 )  ( <= ( + Y13 84 ) Y0 )  )
( or ( <= ( + X0 91 ) X14 )  ( <= ( + X14 69 ) X0 )  ( <= ( + Y0 25 ) Y14 )  ( <= ( + Y14 93 ) Y0 )  )
( or ( <= ( + X0 91 ) X15 )  ( <= ( + X15 60 ) X0 )  ( <= ( + Y0 25 ) Y15 )  ( <= ( + Y15 16 ) Y0 )  )
( or ( <= ( + X0 91 ) X16 )  ( <= ( + X16 17 ) X0 )  ( <= ( + Y0 25 ) Y16 )  ( <= ( + Y16 73 ) Y0 )  )
( or ( <= ( + X0 91 ) X17 )  ( <= ( + X17 5 ) X0 )  ( <= ( + Y0 25 ) Y17 )  ( <= ( + Y17 98 ) Y0 )  )
( or ( <= ( + X1 73 ) X2 )  ( <= ( + X2 31 ) X1 )  ( <= ( + Y1 16 ) Y2 )  ( <= ( + Y2 33 ) Y1 )  )
( or ( <= ( + X1 73 ) X3 )  ( <= ( + X3 90 ) X1 )  ( <= ( + Y1 16 ) Y3 )  ( <= ( + Y3 58 ) Y1 )  )
( or ( <= ( + X1 73 ) X4 )  ( <= ( + X4 53 ) X1 )  ( <= ( + Y1 16 ) Y4 )  ( <= ( + Y4 97 ) Y1 )  )
( or ( <= ( + X1 73 ) X5 )  ( <= ( + X5 37 ) X1 )  ( <= ( + Y1 16 ) Y5 )  ( <= ( + Y5 24 ) Y1 )  )
( or ( <= ( + X1 73 ) X6 )  ( <= ( + X6 54 ) X1 )  ( <= ( + Y1 16 ) Y6 )  ( <= ( + Y6 88 ) Y1 )  )
( or ( <= ( + X1 73 ) X7 )  ( <= ( + X7 53 ) X1 )  ( <= ( + Y1 16 ) Y7 )  ( <= ( + Y7 99 ) Y1 )  )
( or ( <= ( + X1 73 ) X8 )  ( <= ( + X8 64 ) X1 )  ( <= ( + Y1 16 ) Y8 )  ( <= ( + Y8 59 ) Y1 )  )
( or ( <= ( + X1 73 ) X9 )  ( <= ( + X9 25 ) X1 )  ( <= ( + Y1 16 ) Y9 )  ( <= ( + Y9 40 ) Y1 )  )
( or ( <= ( + X1 73 ) X10 )  ( <= ( + X10 21 ) X1 )  ( <= ( + Y1 16 ) Y10 )  ( <= ( + Y10 41 ) Y1 )  )
( or ( <= ( + X1 73 ) X11 )  ( <= ( + X11 54 ) X1 )  ( <= ( + Y1 16 ) Y11 )  ( <= ( + Y11 69 ) Y1 )  )
( or ( <= ( + X1 73 ) X12 )  ( <= ( + X12 75 ) X1 )  ( <= ( + Y1 16 ) Y12 )  ( <= ( + Y12 86 ) Y1 )  )
( or ( <= ( + X1 73 ) X13 )  ( <= ( + X13 20 ) X1 )  ( <= ( + Y1 16 ) Y13 )  ( <= ( + Y13 84 ) Y1 )  )
( or ( <= ( + X1 73 ) X14 )  ( <= ( + X14 69 ) X1 )  ( <= ( + Y1 16 ) Y14 )  ( <= ( + Y14 93 ) Y1 )  )
( or ( <= ( + X1 73 ) X15 )  ( <= ( + X15 60 ) X1 )  ( <= ( + Y1 16 ) Y15 )  ( <= ( + Y15 16 ) Y1 )  )
( or ( <= ( + X1 73 ) X16 )  ( <= ( + X16 17 ) X1 )  ( <= ( + Y1 16 ) Y16 )  ( <= ( + Y16 73 ) Y1 )  )
( or ( <= ( + X1 73 ) X17 )  ( <= ( + X17 5 ) X1 )  ( <= ( + Y1 16 ) Y17 )  ( <= ( + Y17 98 ) Y1 )  )
( or ( <= ( + X2 31 ) X3 )  ( <= ( + X3 90 ) X2 )  ( <= ( + Y2 33 ) Y3 )  ( <= ( + Y3 58 ) Y2 )  )
( or ( <= ( + X2 31 ) X4 )  ( <= ( + X4 53 ) X2 )  ( <= ( + Y2 33 ) Y4 )  ( <= ( + Y4 97 ) Y2 )  )
( or ( <= ( + X2 31 ) X5 )  ( <= ( + X5 37 ) X2 )  ( <= ( + Y2 33 ) Y5 )  ( <= ( + Y5 24 ) Y2 )  )
( or ( <= ( + X2 31 ) X6 )  ( <= ( + X6 54 ) X2 )  ( <= ( + Y2 33 ) Y6 )  ( <= ( + Y6 88 ) Y2 )  )
( or ( <= ( + X2 31 ) X7 )  ( <= ( + X7 53 ) X2 )  ( <= ( + Y2 33 ) Y7 )  ( <= ( + Y7 99 ) Y2 )  )
( or ( <= ( + X2 31 ) X8 )  ( <= ( + X8 64 ) X2 )  ( <= ( + Y2 33 ) Y8 )  ( <= ( + Y8 59 ) Y2 )  )
( or ( <= ( + X2 31 ) X9 )  ( <= ( + X9 25 ) X2 )  ( <= ( + Y2 33 ) Y9 )  ( <= ( + Y9 40 ) Y2 )  )
( or ( <= ( + X2 31 ) X10 )  ( <= ( + X10 21 ) X2 )  ( <= ( + Y2 33 ) Y10 )  ( <= ( + Y10 41 ) Y2 )  )
( or ( <= ( + X2 31 ) X11 )  ( <= ( + X11 54 ) X2 )  ( <= ( + Y2 33 ) Y11 )  ( <= ( + Y11 69 ) Y2 )  )
( or ( <= ( + X2 31 ) X12 )  ( <= ( + X12 75 ) X2 )  ( <= ( + Y2 33 ) Y12 )  ( <= ( + Y12 86 ) Y2 )  )
( or ( <= ( + X2 31 ) X13 )  ( <= ( + X13 20 ) X2 )  ( <= ( + Y2 33 ) Y13 )  ( <= ( + Y13 84 ) Y2 )  )
( or ( <= ( + X2 31 ) X14 )  ( <= ( + X14 69 ) X2 )  ( <= ( + Y2 33 ) Y14 )  ( <= ( + Y14 93 ) Y2 )  )
( or ( <= ( + X2 31 ) X15 )  ( <= ( + X15 60 ) X2 )  ( <= ( + Y2 33 ) Y15 )  ( <= ( + Y15 16 ) Y2 )  )
( or ( <= ( + X2 31 ) X16 )  ( <= ( + X16 17 ) X2 )  ( <= ( + Y2 33 ) Y16 )  ( <= ( + Y16 73 ) Y2 )  )
( or ( <= ( + X2 31 ) X17 )  ( <= ( + X17 5 ) X2 )  ( <= ( + Y2 33 ) Y17 )  ( <= ( + Y17 98 ) Y2 )  )
( or ( <= ( + X3 90 ) X4 )  ( <= ( + X4 53 ) X3 )  ( <= ( + Y3 58 ) Y4 )  ( <= ( + Y4 97 ) Y3 )  )
( or ( <= ( + X3 90 ) X5 )  ( <= ( + X5 37 ) X3 )  ( <= ( + Y3 58 ) Y5 )  ( <= ( + Y5 24 ) Y3 )  )
( or ( <= ( + X3 90 ) X6 )  ( <= ( + X6 54 ) X3 )  ( <= ( + Y3 58 ) Y6 )  ( <= ( + Y6 88 ) Y3 )  )
( or ( <= ( + X3 90 ) X7 )  ( <= ( + X7 53 ) X3 )  ( <= ( + Y3 58 ) Y7 )  ( <= ( + Y7 99 ) Y3 )  )
( or ( <= ( + X3 90 ) X8 )  ( <= ( + X8 64 ) X3 )  ( <= ( + Y3 58 ) Y8 )  ( <= ( + Y8 59 ) Y3 )  )
( or ( <= ( + X3 90 ) X9 )  ( <= ( + X9 25 ) X3 )  ( <= ( + Y3 58 ) Y9 )  ( <= ( + Y9 40 ) Y3 )  )
( or ( <= ( + X3 90 ) X10 )  ( <= ( + X10 21 ) X3 )  ( <= ( + Y3 58 ) Y10 )  ( <= ( + Y10 41 ) Y3 )  )
( or ( <= ( + X3 90 ) X11 )  ( <= ( + X11 54 ) X3 )  ( <= ( + Y3 58 ) Y11 )  ( <= ( + Y11 69 ) Y3 )  )
( or ( <= ( + X3 90 ) X12 )  ( <= ( + X12 75 ) X3 )  ( <= ( + Y3 58 ) Y12 )  ( <= ( + Y12 86 ) Y3 )  )
( or ( <= ( + X3 90 ) X13 )  ( <= ( + X13 20 ) X3 )  ( <= ( + Y3 58 ) Y13 )  ( <= ( + Y13 84 ) Y3 )  )
( or ( <= ( + X3 90 ) X14 )  ( <= ( + X14 69 ) X3 )  ( <= ( + Y3 58 ) Y14 )  ( <= ( + Y14 93 ) Y3 )  )
( or ( <= ( + X3 90 ) X15 )  ( <= ( + X15 60 ) X3 )  ( <= ( + Y3 58 ) Y15 )  ( <= ( + Y15 16 ) Y3 )  )
( or ( <= ( + X3 90 ) X16 )  ( <= ( + X16 17 ) X3 )  ( <= ( + Y3 58 ) Y16 )  ( <= ( + Y16 73 ) Y3 )  )
( or ( <= ( + X3 90 ) X17 )  ( <= ( + X17 5 ) X3 )  ( <= ( + Y3 58 ) Y17 )  ( <= ( + Y17 98 ) Y3 )  )
( or ( <= ( + X4 53 ) X5 )  ( <= ( + X5 37 ) X4 )  ( <= ( + Y4 97 ) Y5 )  ( <= ( + Y5 24 ) Y4 )  )
( or ( <= ( + X4 53 ) X6 )  ( <= ( + X6 54 ) X4 )  ( <= ( + Y4 97 ) Y6 )  ( <= ( + Y6 88 ) Y4 )  )
( or ( <= ( + X4 53 ) X7 )  ( <= ( + X7 53 ) X4 )  ( <= ( + Y4 97 ) Y7 )  ( <= ( + Y7 99 ) Y4 )  )
( or ( <= ( + X4 53 ) X8 )  ( <= ( + X8 64 ) X4 )  ( <= ( + Y4 97 ) Y8 )  ( <= ( + Y8 59 ) Y4 )  )
( or ( <= ( + X4 53 ) X9 )  ( <= ( + X9 25 ) X4 )  ( <= ( + Y4 97 ) Y9 )  ( <= ( + Y9 40 ) Y4 )  )
( or ( <= ( + X4 53 ) X10 )  ( <= ( + X10 21 ) X4 )  ( <= ( + Y4 97 ) Y10 )  ( <= ( + Y10 41 ) Y4 )  )
( or ( <= ( + X4 53 ) X11 )  ( <= ( + X11 54 ) X4 )  ( <= ( + Y4 97 ) Y11 )  ( <= ( + Y11 69 ) Y4 )  )
( or ( <= ( + X4 53 ) X12 )  ( <= ( + X12 75 ) X4 )  ( <= ( + Y4 97 ) Y12 )  ( <= ( + Y12 86 ) Y4 )  )
( or ( <= ( + X4 53 ) X13 )  ( <= ( + X13 20 ) X4 )  ( <= ( + Y4 97 ) Y13 )  ( <= ( + Y13 84 ) Y4 )  )
( or ( <= ( + X4 53 ) X14 )  ( <= ( + X14 69 ) X4 )  ( <= ( + Y4 97 ) Y14 )  ( <= ( + Y14 93 ) Y4 )  )
( or ( <= ( + X4 53 ) X15 )  ( <= ( + X15 60 ) X4 )  ( <= ( + Y4 97 ) Y15 )  ( <= ( + Y15 16 ) Y4 )  )
( or ( <= ( + X4 53 ) X16 )  ( <= ( + X16 17 ) X4 )  ( <= ( + Y4 97 ) Y16 )  ( <= ( + Y16 73 ) Y4 )  )
( or ( <= ( + X4 53 ) X17 )  ( <= ( + X17 5 ) X4 )  ( <= ( + Y4 97 ) Y17 )  ( <= ( + Y17 98 ) Y4 )  )
( or ( <= ( + X5 37 ) X6 )  ( <= ( + X6 54 ) X5 )  ( <= ( + Y5 24 ) Y6 )  ( <= ( + Y6 88 ) Y5 )  )
( or ( <= ( + X5 37 ) X7 )  ( <= ( + X7 53 ) X5 )  ( <= ( + Y5 24 ) Y7 )  ( <= ( + Y7 99 ) Y5 )  )
( or ( <= ( + X5 37 ) X8 )  ( <= ( + X8 64 ) X5 )  ( <= ( + Y5 24 ) Y8 )  ( <= ( + Y8 59 ) Y5 )  )
( or ( <= ( + X5 37 ) X9 )  ( <= ( + X9 25 ) X5 )  ( <= ( + Y5 24 ) Y9 )  ( <= ( + Y9 40 ) Y5 )  )
( or ( <= ( + X5 37 ) X10 )  ( <= ( + X10 21 ) X5 )  ( <= ( + Y5 24 ) Y10 )  ( <= ( + Y10 41 ) Y5 )  )
( or ( <= ( + X5 37 ) X11 )  ( <= ( + X11 54 ) X5 )  ( <= ( + Y5 24 ) Y11 )  ( <= ( + Y11 69 ) Y5 )  )
( or ( <= ( + X5 37 ) X12 )  ( <= ( + X12 75 ) X5 )  ( <= ( + Y5 24 ) Y12 )  ( <= ( + Y12 86 ) Y5 )  )
( or ( <= ( + X5 37 ) X13 )  ( <= ( + X13 20 ) X5 )  ( <= ( + Y5 24 ) Y13 )  ( <= ( + Y13 84 ) Y5 )  )
( or ( <= ( + X5 37 ) X14 )  ( <= ( + X14 69 ) X5 )  ( <= ( + Y5 24 ) Y14 )  ( <= ( + Y14 93 ) Y5 )  )
( or ( <= ( + X5 37 ) X15 )  ( <= ( + X15 60 ) X5 )  ( <= ( + Y5 24 ) Y15 )  ( <= ( + Y15 16 ) Y5 )  )
( or ( <= ( + X5 37 ) X16 )  ( <= ( + X16 17 ) X5 )  ( <= ( + Y5 24 ) Y16 )  ( <= ( + Y16 73 ) Y5 )  )
( or ( <= ( + X5 37 ) X17 )  ( <= ( + X17 5 ) X5 )  ( <= ( + Y5 24 ) Y17 )  ( <= ( + Y17 98 ) Y5 )  )
( or ( <= ( + X6 54 ) X7 )  ( <= ( + X7 53 ) X6 )  ( <= ( + Y6 88 ) Y7 )  ( <= ( + Y7 99 ) Y6 )  )
( or ( <= ( + X6 54 ) X8 )  ( <= ( + X8 64 ) X6 )  ( <= ( + Y6 88 ) Y8 )  ( <= ( + Y8 59 ) Y6 )  )
( or ( <= ( + X6 54 ) X9 )  ( <= ( + X9 25 ) X6 )  ( <= ( + Y6 88 ) Y9 )  ( <= ( + Y9 40 ) Y6 )  )
( or ( <= ( + X6 54 ) X10 )  ( <= ( + X10 21 ) X6 )  ( <= ( + Y6 88 ) Y10 )  ( <= ( + Y10 41 ) Y6 )  )
( or ( <= ( + X6 54 ) X11 )  ( <= ( + X11 54 ) X6 )  ( <= ( + Y6 88 ) Y11 )  ( <= ( + Y11 69 ) Y6 )  )
( or ( <= ( + X6 54 ) X12 )  ( <= ( + X12 75 ) X6 )  ( <= ( + Y6 88 ) Y12 )  ( <= ( + Y12 86 ) Y6 )  )
( or ( <= ( + X6 54 ) X13 )  ( <= ( + X13 20 ) X6 )  ( <= ( + Y6 88 ) Y13 )  ( <= ( + Y13 84 ) Y6 )  )
( or ( <= ( + X6 54 ) X14 )  ( <= ( + X14 69 ) X6 )  ( <= ( + Y6 88 ) Y14 )  ( <= ( + Y14 93 ) Y6 )  )
( or ( <= ( + X6 54 ) X15 )  ( <= ( + X15 60 ) X6 )  ( <= ( + Y6 88 ) Y15 )  ( <= ( + Y15 16 ) Y6 )  )
( or ( <= ( + X6 54 ) X16 )  ( <= ( + X16 17 ) X6 )  ( <= ( + Y6 88 ) Y16 )  ( <= ( + Y16 73 ) Y6 )  )
( or ( <= ( + X6 54 ) X17 )  ( <= ( + X17 5 ) X6 )  ( <= ( + Y6 88 ) Y17 )  ( <= ( + Y17 98 ) Y6 )  )
( or ( <= ( + X7 53 ) X8 )  ( <= ( + X8 64 ) X7 )  ( <= ( + Y7 99 ) Y8 )  ( <= ( + Y8 59 ) Y7 )  )
( or ( <= ( + X7 53 ) X9 )  ( <= ( + X9 25 ) X7 )  ( <= ( + Y7 99 ) Y9 )  ( <= ( + Y9 40 ) Y7 )  )
( or ( <= ( + X7 53 ) X10 )  ( <= ( + X10 21 ) X7 )  ( <= ( + Y7 99 ) Y10 )  ( <= ( + Y10 41 ) Y7 )  )
( or ( <= ( + X7 53 ) X11 )  ( <= ( + X11 54 ) X7 )  ( <= ( + Y7 99 ) Y11 )  ( <= ( + Y11 69 ) Y7 )  )
( or ( <= ( + X7 53 ) X12 )  ( <= ( + X12 75 ) X7 )  ( <= ( + Y7 99 ) Y12 )  ( <= ( + Y12 86 ) Y7 )  )
( or ( <= ( + X7 53 ) X13 )  ( <= ( + X13 20 ) X7 )  ( <= ( + Y7 99 ) Y13 )  ( <= ( + Y13 84 ) Y7 )  )
( or ( <= ( + X7 53 ) X14 )  ( <= ( + X14 69 ) X7 )  ( <= ( + Y7 99 ) Y14 )  ( <= ( + Y14 93 ) Y7 )  )
( or ( <= ( + X7 53 ) X15 )  ( <= ( + X15 60 ) X7 )  ( <= ( + Y7 99 ) Y15 )  ( <= ( + Y15 16 ) Y7 )  )
( or ( <= ( + X7 53 ) X16 )  ( <= ( + X16 17 ) X7 )  ( <= ( + Y7 99 ) Y16 )  ( <= ( + Y16 73 ) Y7 )  )
( or ( <= ( + X7 53 ) X17 )  ( <= ( + X17 5 ) X7 )  ( <= ( + Y7 99 ) Y17 )  ( <= ( + Y17 98 ) Y7 )  )
( or ( <= ( + X8 64 ) X9 )  ( <= ( + X9 25 ) X8 )  ( <= ( + Y8 59 ) Y9 )  ( <= ( + Y9 40 ) Y8 )  )
( or ( <= ( + X8 64 ) X10 )  ( <= ( + X10 21 ) X8 )  ( <= ( + Y8 59 ) Y10 )  ( <= ( + Y10 41 ) Y8 )  )
( or ( <= ( + X8 64 ) X11 )  ( <= ( + X11 54 ) X8 )  ( <= ( + Y8 59 ) Y11 )  ( <= ( + Y11 69 ) Y8 )  )
( or ( <= ( + X8 64 ) X12 )  ( <= ( + X12 75 ) X8 )  ( <= ( + Y8 59 ) Y12 )  ( <= ( + Y12 86 ) Y8 )  )
( or ( <= ( + X8 64 ) X13 )  ( <= ( + X13 20 ) X8 )  ( <= ( + Y8 59 ) Y13 )  ( <= ( + Y13 84 ) Y8 )  )
( or ( <= ( + X8 64 ) X14 )  ( <= ( + X14 69 ) X8 )  ( <= ( + Y8 59 ) Y14 )  ( <= ( + Y14 93 ) Y8 )  )
( or ( <= ( + X8 64 ) X15 )  ( <= ( + X15 60 ) X8 )  ( <= ( + Y8 59 ) Y15 )  ( <= ( + Y15 16 ) Y8 )  )
( or ( <= ( + X8 64 ) X16 )  ( <= ( + X16 17 ) X8 )  ( <= ( + Y8 59 ) Y16 )  ( <= ( + Y16 73 ) Y8 )  )
( or ( <= ( + X8 64 ) X17 )  ( <= ( + X17 5 ) X8 )  ( <= ( + Y8 59 ) Y17 )  ( <= ( + Y17 98 ) Y8 )  )
( or ( <= ( + X9 25 ) X10 )  ( <= ( + X10 21 ) X9 )  ( <= ( + Y9 40 ) Y10 )  ( <= ( + Y10 41 ) Y9 )  )
( or ( <= ( + X9 25 ) X11 )  ( <= ( + X11 54 ) X9 )  ( <= ( + Y9 40 ) Y11 )  ( <= ( + Y11 69 ) Y9 )  )
( or ( <= ( + X9 25 ) X12 )  ( <= ( + X12 75 ) X9 )  ( <= ( + Y9 40 ) Y12 )  ( <= ( + Y12 86 ) Y9 )  )
( or ( <= ( + X9 25 ) X13 )  ( <= ( + X13 20 ) X9 )  ( <= ( + Y9 40 ) Y13 )  ( <= ( + Y13 84 ) Y9 )  )
( or ( <= ( + X9 25 ) X14 )  ( <= ( + X14 69 ) X9 )  ( <= ( + Y9 40 ) Y14 )  ( <= ( + Y14 93 ) Y9 )  )
( or ( <= ( + X9 25 ) X15 )  ( <= ( + X15 60 ) X9 )  ( <= ( + Y9 40 ) Y15 )  ( <= ( + Y15 16 ) Y9 )  )
( or ( <= ( + X9 25 ) X16 )  ( <= ( + X16 17 ) X9 )  ( <= ( + Y9 40 ) Y16 )  ( <= ( + Y16 73 ) Y9 )  )
( or ( <= ( + X9 25 ) X17 )  ( <= ( + X17 5 ) X9 )  ( <= ( + Y9 40 ) Y17 )  ( <= ( + Y17 98 ) Y9 )  )
( or ( <= ( + X10 21 ) X11 )  ( <= ( + X11 54 ) X10 )  ( <= ( + Y10 41 ) Y11 )  ( <= ( + Y11 69 ) Y10 )  )
( or ( <= ( + X10 21 ) X12 )  ( <= ( + X12 75 ) X10 )  ( <= ( + Y10 41 ) Y12 )  ( <= ( + Y12 86 ) Y10 )  )
( or ( <= ( + X10 21 ) X13 )  ( <= ( + X13 20 ) X10 )  ( <= ( + Y10 41 ) Y13 )  ( <= ( + Y13 84 ) Y10 )  )
( or ( <= ( + X10 21 ) X14 )  ( <= ( + X14 69 ) X10 )  ( <= ( + Y10 41 ) Y14 )  ( <= ( + Y14 93 ) Y10 )  )
( or ( <= ( + X10 21 ) X15 )  ( <= ( + X15 60 ) X10 )  ( <= ( + Y10 41 ) Y15 )  ( <= ( + Y15 16 ) Y10 )  )
( or ( <= ( + X10 21 ) X16 )  ( <= ( + X16 17 ) X10 )  ( <= ( + Y10 41 ) Y16 )  ( <= ( + Y16 73 ) Y10 )  )
( or ( <= ( + X10 21 ) X17 )  ( <= ( + X17 5 ) X10 )  ( <= ( + Y10 41 ) Y17 )  ( <= ( + Y17 98 ) Y10 )  )
( or ( <= ( + X11 54 ) X12 )  ( <= ( + X12 75 ) X11 )  ( <= ( + Y11 69 ) Y12 )  ( <= ( + Y12 86 ) Y11 )  )
( or ( <= ( + X11 54 ) X13 )  ( <= ( + X13 20 ) X11 )  ( <= ( + Y11 69 ) Y13 )  ( <= ( + Y13 84 ) Y11 )  )
( or ( <= ( + X11 54 ) X14 )  ( <= ( + X14 69 ) X11 )  ( <= ( + Y11 69 ) Y14 )  ( <= ( + Y14 93 ) Y11 )  )
( or ( <= ( + X11 54 ) X15 )  ( <= ( + X15 60 ) X11 )  ( <= ( + Y11 69 ) Y15 )  ( <= ( + Y15 16 ) Y11 )  )
( or ( <= ( + X11 54 ) X16 )  ( <= ( + X16 17 ) X11 )  ( <= ( + Y11 69 ) Y16 )  ( <= ( + Y16 73 ) Y11 )  )
( or ( <= ( + X11 54 ) X17 )  ( <= ( + X17 5 ) X11 )  ( <= ( + Y11 69 ) Y17 )  ( <= ( + Y17 98 ) Y11 )  )
( or ( <= ( + X12 75 ) X13 )  ( <= ( + X13 20 ) X12 )  ( <= ( + Y12 86 ) Y13 )  ( <= ( + Y13 84 ) Y12 )  )
( or ( <= ( + X12 75 ) X14 )  ( <= ( + X14 69 ) X12 )  ( <= ( + Y12 86 ) Y14 )  ( <= ( + Y14 93 ) Y12 )  )
( or ( <= ( + X12 75 ) X15 )  ( <= ( + X15 60 ) X12 )  ( <= ( + Y12 86 ) Y15 )  ( <= ( + Y15 16 ) Y12 )  )
( or ( <= ( + X12 75 ) X16 )  ( <= ( + X16 17 ) X12 )  ( <= ( + Y12 86 ) Y16 )  ( <= ( + Y16 73 ) Y12 )  )
( or ( <= ( + X12 75 ) X17 )  ( <= ( + X17 5 ) X12 )  ( <= ( + Y12 86 ) Y17 )  ( <= ( + Y17 98 ) Y12 )  )
( or ( <= ( + X13 20 ) X14 )  ( <= ( + X14 69 ) X13 )  ( <= ( + Y13 84 ) Y14 )  ( <= ( + Y14 93 ) Y13 )  )
( or ( <= ( + X13 20 ) X15 )  ( <= ( + X15 60 ) X13 )  ( <= ( + Y13 84 ) Y15 )  ( <= ( + Y15 16 ) Y13 )  )
( or ( <= ( + X13 20 ) X16 )  ( <= ( + X16 17 ) X13 )  ( <= ( + Y13 84 ) Y16 )  ( <= ( + Y16 73 ) Y13 )  )
( or ( <= ( + X13 20 ) X17 )  ( <= ( + X17 5 ) X13 )  ( <= ( + Y13 84 ) Y17 )  ( <= ( + Y17 98 ) Y13 )  )
( or ( <= ( + X14 69 ) X15 )  ( <= ( + X15 60 ) X14 )  ( <= ( + Y14 93 ) Y15 )  ( <= ( + Y15 16 ) Y14 )  )
( or ( <= ( + X14 69 ) X16 )  ( <= ( + X16 17 ) X14 )  ( <= ( + Y14 93 ) Y16 )  ( <= ( + Y16 73 ) Y14 )  )
( or ( <= ( + X14 69 ) X17 )  ( <= ( + X17 5 ) X14 )  ( <= ( + Y14 93 ) Y17 )  ( <= ( + Y17 98 ) Y14 )  )
( or ( <= ( + X15 60 ) X16 )  ( <= ( + X16 17 ) X15 )  ( <= ( + Y15 16 ) Y16 )  ( <= ( + Y16 73 ) Y15 )  )
( or ( <= ( + X15 60 ) X17 )  ( <= ( + X17 5 ) X15 )  ( <= ( + Y15 16 ) Y17 )  ( <= ( + Y17 98 ) Y15 )  )
( or ( <= ( + X16 17 ) X17 )  ( <= ( + X17 5 ) X16 )  ( <= ( + Y16 73 ) Y17 )  ( <= ( + Y17 98 ) Y16 )  )
( >= X0 0)
( <= ( + X0 91) Z)
( >= Y0 0)
( <= ( + Y0 25 ) 100)
( >= X1 0)
( <= ( + X1 73) Z)
( >= Y1 0)
( <= ( + Y1 16 ) 100)
( >= X2 0)
( <= ( + X2 31) Z)
( >= Y2 0)
( <= ( + Y2 33 ) 100)
( >= X3 0)
( <= ( + X3 90) Z)
( >= Y3 0)
( <= ( + Y3 58 ) 100)
( >= X4 0)
( <= ( + X4 53) Z)
( >= Y4 0)
( <= ( + Y4 97 ) 100)
( >= X5 0)
( <= ( + X5 37) Z)
( >= Y5 0)
( <= ( + Y5 24 ) 100)
( >= X6 0)
( <= ( + X6 54) Z)
( >= Y6 0)
( <= ( + Y6 88 ) 100)
( >= X7 0)
( <= ( + X7 53) Z)
( >= Y7 0)
( <= ( + Y7 99 ) 100)
( >= X8 0)
( <= ( + X8 64) Z)
( >= Y8 0)
( <= ( + Y8 59 ) 100)
( >= X9 0)
( <= ( + X9 25) Z)
( >= Y9 0)
( <= ( + Y9 40 ) 100)
( >= X10 0)
( <= ( + X10 21) Z)
( >= Y10 0)
( <= ( + Y10 41 ) 100)
( >= X11 0)
( <= ( + X11 54) Z)
( >= Y11 0)
( <= ( + Y11 69 ) 100)
( >= X12 0)
( <= ( + X12 75) Z)
( >= Y12 0)
( <= ( + Y12 86 ) 100)
( >= X13 0)
( <= ( + X13 20) Z)
( >= Y13 0)
( <= ( + Y13 84 ) 100)
( >= X14 0)
( <= ( + X14 69) Z)
( >= Y14 0)
( <= ( + Y14 93 ) 100)
( >= X15 0)
( <= ( + X15 60) Z)
( >= Y15 0)
( <= ( + Y15 16 ) 100)
( >= X16 0)
( <= ( + X16 17) Z)
( >= Y16 0)
( <= ( + Y16 73 ) 100)
( >= X17 0)
( <= ( + X17 5) Z)
( >= Y17 0)
( <= ( + Y17 98 ) 100)
) )
)(=> $phi $goal))))